(set-info :smt-lib-version 2.6)
(set-info :category "crafted")
(set-logic QF_FF)
(define-sort FF0 () (_ FiniteField 52435875175126190479447740508185965837690552500527637822603658699938581184513))
(declare-fun a () Bool)
(declare-fun b () Bool)
(declare-fun d () Bool)
(declare-fun c () Bool)
(declare-fun out () FF0)
(declare-fun _81 () FF0)
(declare-fun _0 () FF0)
(declare-fun _80 () FF0)
(declare-fun _21 () FF0)
(declare-fun _79 () FF0)
(declare-fun _60 () FF0)
(declare-fun _78 () FF0)
(declare-fun _61 () FF0)
(declare-fun _77 () FF0)
(declare-fun _71 () FF0)
(declare-fun _76 () FF0)
(declare-fun _75 () FF0)
(declare-fun _1 () FF0)
(declare-fun _74 () FF0)
(declare-fun _72 () FF0)
(declare-fun _70 () FF0)
(declare-fun _37 () FF0)
(declare-fun _36 () FF0)
(declare-fun _62 () FF0)
(declare-fun _67 () FF0)
(declare-fun _69 () FF0)
(declare-fun _56 () FF0)
(declare-fun _50 () FF0)
(declare-fun _49 () FF0)
(declare-fun _20 () FF0)
(declare-fun _2 () FF0)
(declare-fun _28 () FF0)
(declare-fun _27 () FF0)
(declare-fun _59 () FF0)
(declare-fun _32 () FF0)
(declare-fun _57 () FF0)
(declare-fun _9 () FF0)
(declare-fun _16 () FF0)
(declare-fun _15 () FF0)
(declare-fun _3 () FF0)
(declare-fun _55 () FF0)
(declare-fun _54 () FF0)
(declare-fun _44 () FF0)
(declare-fun _43 () FF0)
(declare-fun _53 () FF0)
(declare-fun _52 () FF0)
(declare-fun _6 () FF0)
(declare-fun _31 () FF0)
(declare-fun _7 () FF0)
(declare-fun _30 () FF0)
(declare-fun _19 () FF0)
(declare-fun _18 () FF0)
(declare-fun _5 () FF0)
(declare-fun _4 () FF0)
(assert 
  (let ((let0 a))
  (let ((let1 b))
  (let ((let2 d))
  (let ((let3 c))
  (let ((let4 (and let0 let3 let1 let2)))
  (let ((let5 (= let0 let4)))
  (let ((let6 (= let5 let1)))
  (let ((let7 (= let6 let6)))
  (let ((let8 (=> let7 let0)))
  (let ((let9 (not let8)))
  (let ((let10 (ite let1 let2 let3)))
  (let ((let11 (or let5 let10 let3 let10)))
  (let ((let12 (= let11 let9)))
  (let ((let13 (not let12)))
  (let ((let14 (ite let10 let0 let4)))
  (let ((let15 (and let14 let7 let8 let5 let4)))
  (let ((let16 (ite let14 let11 let15)))
  (let ((let17 (not let11)))
  (let ((let18 (ite let17 let16 let12)))
  (let ((let19 (ite let16 let17 let15)))
  (let ((let20 (and let19 let19 let6 let18 let14 let2)))
  (let ((let21 (= let9 let9)))
  (let ((let22 (or let21 let4 let20)))
  (let ((let23 (=> let22 let6)))
  (let ((let24 (= let10 let21)))
  (let ((let25 (or let24 let23 let15)))
  (let ((let26 (=> let14 let17)))
  (let ((let27 (=> let17 let3)))
  (let ((let28 (ite let12 let21 let19)))
  (let ((let29 (and let28 let20 let28 let7)))
  (let ((let30 (and let29 let27)))
  (let ((let31 (= let16 let12)))
  (let ((let32 (=> let31 let29)))
  (let ((let33 (or let32 let8 let1)))
  (let ((let34 (and let33 let30 let26 let25 let13 let9)))
  (let ((let35 out))
  (let ((let36 (as ff1 FF0)))
  (let ((let37 (= let36 let35)))
  (let ((let38 (= let37 let34)))
  (let ((let39 (as ff0 FF0)))
  (let ((let40 (= let39 let35)))
  (let ((let41 (or let37 let40)))
  (let ((let42 (and let41 let38)))
  (let ((let43 _81))
  (let ((let44 (as ff52435875175126190479447740508185965837690552500527637822603658699938581184512 FF0)))
  (let ((let45 _0))
  (let ((let46 (ff.mul let45 let44)))
  (let ((let47 (ff.add let46 let36)))
  (let ((let48 _80))
  (let ((let49 (ff.mul let48 let47)))
  (let ((let50 (= let49 let43)))
  (let ((let51 _21))
  (let ((let52 _79))
  (let ((let53 (ff.mul let52 let51)))
  (let ((let54 (= let53 let48)))
  (let ((let55 _60))
  (let ((let56 _78))
  (let ((let57 (ff.mul let56 let55)))
  (let ((let58 (= let57 let52)))
  (let ((let59 _61))
  (let ((let60 _77))
  (let ((let61 (ff.mul let60 let59)))
  (let ((let62 (= let61 let56)))
  (let ((let63 _71))
  (let ((let64 _76))
  (let ((let65 (ff.mul let64 let63)))
  (let ((let66 (= let65 let60)))
  (let ((let67 (ff.mul let64 let44)))
  (let ((let68 _75))
  (let ((let69 _1))
  (let ((let70 (ff.add let69 let68 let67)))
  (let ((let71 (ff.mul let68 let69)))
  (let ((let72 (= let71 let70)))
  (let ((let73 (ff.mul let68 let44)))
  (let ((let74 _74))
  (let ((let75 (ff.add let45 let74 let73)))
  (let ((let76 (ff.mul let74 let45)))
  (let ((let77 (= let76 let75)))
  (let ((let78 (ff.mul let74 let44)))
  (let ((let79 _72))
  (let ((let80 _70))
  (let ((let81 (ff.add let80 let79 let78)))
  (let ((let82 (ff.mul let79 let80)))
  (let ((let83 (= let82 let81)))
  (let ((let84 _37))
  (let ((let85 _36))
  (let ((let86 (ff.add let51 let85 let84 let44)))
  (let ((let87 (ff.mul let86 let86)))
  (let ((let88 (= let87 let79)))
  (let ((let89 _62))
  (let ((let90 (ff.mul let80 let89)))
  (let ((let91 (= let90 let63)))
  (let ((let92 _67))
  (let ((let93 (ff.mul let51 let44)))
  (let ((let94 (ff.add let93 let92 let36)))
  (let ((let95 _69))
  (let ((let96 (ff.mul let95 let94)))
  (let ((let97 (= let96 let80)))
  (let ((let98 _56))
  (let ((let99 (ff.mul let94 let98)))
  (let ((let100 (= let99 let95)))
  (let ((let101 _50))
  (let ((let102 _49))
  (let ((let103 (ff.add let102 let101)))
  (let ((let104 (ff.mul let51 let103)))
  (let ((let105 (= let104 let92)))
  (let ((let106 (ff.mul let89 let44)))
  (let ((let107 _20))
  (let ((let108 _2))
  (let ((let109 (ff.add let108 let107 let106)))
  (let ((let110 (ff.mul let107 let108)))
  (let ((let111 (= let110 let109)))
  (let ((let112 (as ff2 FF0)))
  (let ((let113 (ff.mul let59 let44)))
  (let ((let114 _28))
  (let ((let115 (ff.mul let114 let44)))
  (let ((let116 _27))
  (let ((let117 (ff.mul let116 let44)))
  (let ((let118 (ff.mul let107 let44)))
  (let ((let119 (ff.add let118 let117 let115 let113 let112)))
  (let ((let120 (ff.add let118 let36)))
  (let ((let121 (ff.add let117 let115 let36)))
  (let ((let122 (ff.mul let121 let120)))
  (let ((let123 (= let122 let119)))
  (let ((let124 (ff.mul let55 let44)))
  (let ((let125 _59))
  (let ((let126 _32))
  (let ((let127 (ff.add let126 let125 let124)))
  (let ((let128 (ff.mul let125 let126)))
  (let ((let129 (= let128 let127)))
  (let ((let130 (ff.mul let125 let44)))
  (let ((let131 _57))
  (let ((let132 (ff.mul let131 let44)))
  (let ((let133 _9))
  (let ((let134 (ff.mul let133 let44)))
  (let ((let135 (ff.add let134 let132 let130 let112)))
  (let ((let136 (ff.add let134 let36)))
  (let ((let137 (ff.add let132 let36)))
  (let ((let138 (ff.mul let137 let136)))
  (let ((let139 (= let138 let135)))
  (let ((let140 _16))
  (let ((let141 _15))
  (let ((let142 (ff.add let141 let140 let44)))
  (let ((let143 (ff.mul let142 let142)))
  (let ((let144 (= let143 let131)))
  (let ((let145 _3))
  (let ((let146 _55))
  (let ((let147 (ff.mul let146 let145)))
  (let ((let148 (= let147 let98)))
  (let ((let149 (ff.add let116 let114)))
  (let ((let150 _54))
  (let ((let151 (ff.mul let150 let149)))
  (let ((let152 (= let151 let146)))
  (let ((let153 _44))
  (let ((let154 _43))
  (let ((let155 (ff.add let154 let153)))
  (let ((let156 _53))
  (let ((let157 (ff.mul let156 let155)))
  (let ((let158 (= let157 let150)))
  (let ((let159 _52))
  (let ((let160 (ff.mul let159 let136)))
  (let ((let161 (= let160 let156)))
  (let ((let162 (ff.mul let103 let103)))
  (let ((let163 (= let162 let159)))
  (let ((let164 (ff.mul let84 let44)))
  (let ((let165 (ff.mul let85 let44)))
  (let ((let166 (ff.add let165 let164 let36)))
  (let ((let167 (ff.mul let166 let126)))
  (let ((let168 (= let167 let101)))
  (let ((let169 (ff.add let85 let84)))
  (let ((let170 (ff.mul let169 let120)))
  (let ((let171 (= let170 let102)))
  (let ((let172 (ff.add let93 let36)))
  (let ((let173 (ff.mul let107 let172)))
  (let ((let174 (= let173 let153)))
  (let ((let175 (ff.mul let120 let169)))
  (let ((let176 (= let175 let154)))
  (let ((let177 (ff.mul let121 let126)))
  (let ((let178 (= let177 let84)))
  (let ((let179 (ff.mul let149 let107)))
  (let ((let180 (= let179 let85)))
  (let ((let181 _6))
  (let ((let182 _31))
  (let ((let183 (ff.mul let182 let181)))
  (let ((let184 (= let183 let126)))
  (let ((let185 _7))
  (let ((let186 (ff.mul let185 let44)))
  (let ((let187 (ff.add let186 let36)))
  (let ((let188 _30))
  (let ((let189 (ff.mul let188 let187)))
  (let ((let190 (= let189 let182)))
  (let ((let191 (ff.mul let149 let45)))
  (let ((let192 (= let191 let188)))
  (let ((let193 (ff.mul let140 let44)))
  (let ((let194 (ff.mul let141 let44)))
  (let ((let195 (ff.add let194 let193 let36)))
  (let ((let196 (ff.mul let195 let181)))
  (let ((let197 (= let196 let114)))
  (let ((let198 (ff.add let141 let140)))
  (let ((let199 (ff.mul let198 let45)))
  (let ((let200 (= let199 let116)))
  (let ((let201 (ff.add let45 let107 let44)))
  (let ((let202 (ff.mul let201 let201)))
  (let ((let203 (= let202 let51)))
  (let ((let204 _19))
  (let ((let205 (ff.add let141 let140 let204 let118)))
  (let ((let206 (ff.mul let204 let198)))
  (let ((let207 (= let206 let205)))
  (let ((let208 (ff.mul let204 let44)))
  (let ((let209 _18))
  (let ((let210 (ff.add let108 let209 let208)))
  (let ((let211 (ff.mul let209 let108)))
  (let ((let212 (= let211 let210)))
  (let ((let213 (ff.mul let209 let44)))
  (let ((let214 (ff.add let186 let141 let140 let213 let36)))
  (let ((let215 (ff.mul let187 let198)))
  (let ((let216 (= let215 let214)))
  (let ((let217 (ff.mul let69 let44)))
  (let ((let218 (ff.add let217 let36)))
  (let ((let219 (ff.mul let218 let108)))
  (let ((let220 (= let219 let140)))
  (let ((let221 (ff.mul let69 let145)))
  (let ((let222 (= let221 let141)))
  (let ((let223 (ff.add let217 let186 let36)))
  (let ((let224 (ff.mul let223 let223)))
  (let ((let225 (= let224 let133)))
  (let ((let226 (ff.mul let181 let44)))
  (let ((let227 (ff.add let45 let226)))
  (let ((let228 (ff.mul let227 let227)))
  (let ((let229 (= let228 let185)))
  (let ((let230 _5))
  (let ((let231 (ff.mul let230 let145)))
  (let ((let232 (= let231 let181)))
  (let ((let233 _4))
  (let ((let234 (ff.mul let233 let69)))
  (let ((let235 (= let234 let230)))
  (let ((let236 (ff.mul let45 let108)))
  (let ((let237 (= let236 let233)))
  (let ((let238 (ff.mul let145 let145)))
  (let ((let239 (= let238 let145)))
  (let ((let240 (ff.mul let108 let108)))
  (let ((let241 (= let240 let108)))
  (let ((let242 (ff.mul let69 let69)))
  (let ((let243 (= let242 let69)))
  (let ((let244 (ff.mul let45 let45)))
  (let ((let245 (= let244 let45)))
  (let ((let246 (and let245 let243 let241 let239 let237 let235 let232 let229 let225 let222 let220 let216 let212 let207 let203 let200 let197 let192 let190 let184 let180 let178 let176 let174 let171 let168 let163 let161 let158 let152 let148 let144 let139 let129 let123 let111 let105 let100 let97 let91 let88 let83 let77 let72 let66 let62 let58 let54 let50)))
  (let ((let247 (ite let0 let36 let39)))
  (let ((let248 (= let45 let247)))
  (let ((let249 (ite let3 let36 let39)))
  (let ((let250 (= let108 let249)))
  (let ((let251 (ite let2 let36 let39)))
  (let ((let252 (= let145 let251)))
  (let ((let253 (ite let1 let36 let39)))
  (let ((let254 (= let69 let253)))
  (let ((let255 (and let254 let252 let250 let248)))
  (let ((let256 (and let255 let246)))
  (let ((let257 (=> let256 let42)))
  (let ((let258 (not let257)))
  let258
)))))))))))))))))))))))))))))))))))))))))))))))))))))))))))))))))))))))))))))))))))))))))))))))))))))))))))))))))))))))))))))))))))))))))))))))))))))))))))))))))))))))))))))))))))))))))))))))))))))))))))))))))))))))))))))))))))))))))))))))))))))))))))))))))))
)
(check-sat)
